data/instances/vrp_files/train_28.vrp
NAME : 28
COMMENT : Generated instance No. 28
TYPE : CVRP
DIMENSION : 21
EDGE_WEIGHT_TYPE : EUC_2D
CAPACITY : 30
NODE_COORD_SECTION
 1 600 515
 2 465 60
 3 562 957
 4 175 690
 5 200 535
 6 96 450
 7 756 347
 8 664 795
 9 927 234
 10 399 152
 11 992 927
 12 539 842
 13 520 623
 14 89 755
 15 127 826
 16 782 708
 17 36 303
 18 263 360
 19 87 936
 20 553 305
 21 396 447
DEMAND_SECTION
1 0
2 3
3 6
4 6
5 5
6 4
7 10
8 1
9 10
10 6
11 2
12 3
13 8
14 10
15 6
16 3
17 7
18 4
19 9
20 5
21 3
DEPOT_SECTION
 1
 -1
EOF